benchmarks/bfuzz0/8972271924771110502798087352055815403.smt2
(set-logic QF_FP)
(declare-const x0 (_ FloatingPoint 8 24))
(declare-const x1 (_ FloatingPoint 8 24))
(declare-const x2 (_ FloatingPoint 8 24))
(declare-const x3 (_ FloatingPoint 8 24))
(declare-const x4 (_ FloatingPoint 8 24))
(declare-const x5 (_ FloatingPoint 8 24))
(declare-const x6 (_ FloatingPoint 8 24))
(declare-const x7 (_ FloatingPoint 8 24))
(declare-const x8 (_ FloatingPoint 8 24))
(declare-const x9 (_ FloatingPoint 8 24))
(declare-const x10 (_ FloatingPoint 8 24))
(declare-const x11 (_ FloatingPoint 8 24))
(assert (fp.leq (fp.add RNE (fp.neg x9) (fp.add RNE x4 x10)) (fp.mul RNE (fp.mul RNE x2 x6) (fp.sub RNE x3 x5))))
(assert (fp.eq (fp.mul RNE (fp.sub RNE x5 x8) (fp.add RNE x8 x5)) (fp.neg (fp.sub RNE x7 x1))))
(assert (fp.leq (fp.add RNE (fp.neg x8) (fp.div RNE x6 x11)) (fp.neg (fp.neg x6))))
(assert (fp.eq (fp.sub RNE (fp.sub RNE x0 x7) (fp.div RNE x11 x5)) (fp.div RNE (fp.div RNE x0 x8) (fp.div RNE x5 x1))))
(assert (fp.eq (fp.sub RNE (fp.add RNE x5 x8) (fp.neg x11)) (fp.div RNE (fp.mul RNE x4 x10) (fp.neg x9))))
(assert (fp.gt (fp.add RNE (fp.neg x3) (fp.sub RNE x4 x3)) (fp.neg (fp.sub RNE x9 x9))))
(assert (fp.gt (fp.mul RNE (fp.div RNE x5 x1) (fp.sub RNE x2 x10)) (fp.mul RNE (fp.sub RNE x2 x7) (fp.add RNE x8 x9))))
(assert (fp.lt (fp.neg (fp.add RNE x1 x7)) (fp.mul RNE (fp.div RNE x3 x6) (fp.mul RNE x4 x6))))
(assert (fp.leq (fp.div RNE (fp.sub RNE x8 x2) (fp.neg x10)) (fp.div RNE (fp.add RNE x4 x3) (fp.div RNE x4 x5))))
(assert (fp.lt (fp.sub RNE (fp.neg x9) (fp.mul RNE x4 x7)) (fp.mul RNE (fp.add RNE x0 x10) (fp.mul RNE x2 x1))))
(assert (fp.geq (fp.sub RNE (fp.add RNE x7 x4) (fp.add RNE x8 x0)) (fp.neg (fp.div RNE x7 x8))))
(assert (fp.lt (fp.neg (fp.add RNE x7 x6)) (fp.neg (fp.neg x0))))
(check-sat)
