db/data/8972271924771110502798087352055815403.z3.out
sat
-------------------
1715.524984679
